; Getting values or models
(set-option :print-success false)
(set-option :produce-models true)
(set-logic QF_LIA)
(declare-const x Int)
(declare-const y Int)
(assert (= (+ x (* 2 y)) 20))
(assert (= (- x y) 2))
(check-sat)
; sat
(get-value (x y))
; ((x 8) (y 6))
(get-model)
; ((define-fun x () Int 8)
;  (define-fun y () Int 6)
; )
(exit)
